proyfinal/src/viki/013/andrea/andrea-localstore/experimentInOfficeAgust.take6/worker_2/c43c7254-d806-4108-b512-76e163477419.als.cnf.out
Reading from standard input... Use '--help' for help.
============================[ Problem Statistics ]=============================
|                                                                             |
|  Number of variables:         87638                                         |
|  Number of clauses:          161767                                         |
|  Parse time:                   0.03 s                                       |
|                                                                             |
============================[ Search Statistics ]==============================
| Conflicts |          ORIGINAL         |          LEARNT          | Progress |
|           |    Vars  Clauses Literals |    Limit  Clauses Lit/Cl |          |
===============================================================================
|       100 |   62883   107246   267336 |    39323      100     11 | 28.247 % |
|       250 |   62883   107246   267336 |    43255      250     28 | 28.247 % |
|       475 |   62883   107246   267336 |    47581      475     38 | 28.247 % |
|       812 |   62882   107202   267246 |    52339      810     38 | 28.248 % |
|      1318 |   62882   107202   267246 |    57573     1316     40 | 28.248 % |
|      2077 |   62728   106596   265795 |    63330     2055     42 | 28.424 % |
|      3216 |   62683   106377   265305 |    69664     2690     40 | 28.475 % |
|      4924 |   62657   106269   265058 |    76630     4395     56 | 28.505 % |
|      7486 |   62464   106193   264882 |    84293     6953     68 | 28.725 % |
|     11330 |   62141   104579   261029 |    92722    10694     73 | 29.094 % |
|     17096 |   61996   103536   258631 |   101995    13933     73 | 29.259 % |
===============================================================================
restarts              : 67
conflicts             : 19750          (8165 /sec)
decisions             : 63815          (0.00 % random) (26383 /sec)
propagations          : 23811439       (9844380 /sec)
conflict literals     : 1405258        (49.49 % deleted)
Memory used           : 41.43 MB
CPU time              : 2.41879 s

INDETERMINATE
